p cnf 123 349
a 8 10 12 0
d 1 8 0
d 3 10 0
d 6 12 0
d 2 8 0
d 4 10 0
d 5 8 10 0
d 7 8 10 12 0
d 9 8 10 12 0
d 11 8 10 12 0
d 13 8 10 12 0
d 14 8 10 0
d 15 12 0
d 16 8 10 12 0
d 17 8 10 12 0
d 18 8 10 12 0
d 19 8 10 12 0
d 20 8 10 12 0
d 21 8 10 0
d 22 8 10 12 0
d 23 8 10 12 0
d 24 8 10 12 0
d 25 8 10 12 0
d 26 8 10 12 0
d 27 8 10 0
d 28 8 10 12 0
d 29 8 10 12 0
d 30 8 10 12 0
d 31 8 10 12 0
d 32 8 10 12 0
d 33 8 10 12 0
d 34 8 0
d 35 8 10 12 0
d 36 8 10 12 0
d 37 8 10 12 0
d 38 8 10 12 0
d 39 8 10 12 0
d 40 8 10 12 0
d 41 8 10 12 0
d 42 8 10 12 0
d 43 8 10 12 0
d 44 8 10 12 0
d 45 8 10 12 0
d 46 8 10 12 0
d 47 8 10 12 0
d 48 8 10 12 0
d 49 8 10 12 0
d 50 8 10 12 0
d 51 8 10 12 0
d 52 8 10 12 0
d 53 8 10 12 0
d 54 8 10 12 0
d 55 8 10 12 0
d 56 8 10 12 0
d 57 8 10 12 0
d 58 10 0
d 59 8 10 12 0
d 60 8 10 12 0
d 61 8 10 12 0
d 62 8 10 12 0
d 63 8 10 12 0
d 64 8 10 12 0
d 65 8 10 12 0
d 66 8 10 12 0
d 67 8 10 12 0
d 68 8 10 12 0
d 69 8 10 12 0
d 70 8 10 12 0
d 71 8 10 12 0
d 72 8 10 12 0
d 73 8 10 12 0
d 74 8 10 12 0
d 75 8 10 12 0
d 76 8 10 12 0
d 77 8 10 12 0
d 78 8 10 12 0
d 79 8 10 12 0
d 80 12 0
d 81 8 10 12 0
d 82 8 10 12 0
d 83 8 10 12 0
d 84 8 10 12 0
d 85 8 10 12 0
d 86 8 10 12 0
d 87 8 10 12 0
d 88 8 10 12 0
d 89 8 10 12 0
d 90 8 10 12 0
d 91 8 10 12 0
d 92 8 10 12 0
d 93 8 10 12 0
d 94 8 10 12 0
d 95 8 10 12 0
d 96 8 10 12 0
d 97 8 10 12 0
d 98 8 10 12 0
d 99 8 10 12 0
d 100 8 10 12 0
d 101 8 10 12 0
d 102 8 10 12 0
d 103 8 10 12 0
d 104 8 10 12 0
d 105 8 10 12 0
d 106 8 10 12 0
d 107 8 10 12 0
d 108 8 10 12 0
d 109 8 10 12 0
d 110 8 10 12 0
d 111 8 10 12 0
d 112 8 10 12 0
d 113 8 10 12 0
d 114 8 10 12 0
d 115 8 10 12 0
d 116 8 10 12 0
d 117 8 10 12 0
d 118 8 10 12 0
d 119 8 10 12 0
d 120 8 10 12 0
d 121 8 10 0
d 122 8 10 12 0
d 123 8 10 12 0
2 1 0
-2 -1 0
4 3 0
-4 -3 0
-5 2 0
-5 4 0
5 -2 -4 0
-7 5 0
-7 6 0
7 -5 -6 0
-9 7 0
-9 8 0
9 -7 -8 0
-11 9 0
-11 10 0
11 -9 -10 0
-13 11 0
-13 12 0
13 -11 -12 0
-14 1 0
-14 3 0
14 -1 -3 0
15 6 0
-15 -6 0
-16 14 0
-16 15 0
16 -14 -15 0
-17 16 0
-17 8 0
17 -16 -8 0
-18 17 0
-18 10 0
18 -17 -10 0
-19 18 0
-19 12 0
19 -18 -12 0
20 -13 0
20 -19 0
-20 13 19 0
-21 2 0
-21 3 0
21 -2 -3 0
-22 21 0
-22 15 0
22 -21 -15 0
-23 22 0
-23 8 0
23 -22 -8 0
-24 23 0
-24 10 0
24 -23 -10 0
-25 24 0
-25 12 0
25 -24 -12 0
26 -20 0
26 -25 0
-26 20 25 0
-27 1 0
-27 4 0
27 -1 -4 0
-28 27 0
-28 15 0
28 -27 -15 0
-29 28 0
-29 8 0
29 -28 -8 0
-30 29 0
-30 10 0
30 -29 -10 0
-31 30 0
-31 12 0
31 -30 -12 0
32 -26 0
32 -31 0
-32 26 31 0
-33 14 0
-33 6 0
33 -14 -6 0
34 8 0
-34 -8 0
-35 33 0
-35 34 0
35 -33 -34 0
-36 35 0
-36 10 0
36 -35 -10 0
-37 36 0
-37 12 0
37 -36 -12 0
38 -32 0
38 -37 0
-38 32 37 0
-39 21 0
-39 6 0
39 -21 -6 0
-40 39 0
-40 34 0
40 -39 -34 0
-41 40 0
-41 10 0
41 -40 -10 0
-42 41 0
-42 12 0
42 -41 -12 0
43 -38 0
43 -42 0
-43 38 42 0
-44 7 0
-44 34 0
44 -7 -34 0
-45 44 0
-45 10 0
45 -44 -10 0
-46 45 0
-46 12 0
46 -45 -12 0
47 -43 0
47 -46 0
-47 43 46 0
-48 22 0
-48 34 0
48 -22 -34 0
-49 48 0
-49 10 0
49 -48 -10 0
-50 49 0
-50 12 0
50 -49 -12 0
51 -47 0
51 -50 0
-51 47 50 0
-52 28 0
-52 34 0
52 -28 -34 0
-53 52 0
-53 10 0
53 -52 -10 0
-54 53 0
-54 12 0
54 -53 -12 0
55 -51 0
55 -54 0
-55 51 54 0
-56 27 0
-56 6 0
56 -27 -6 0
-57 56 0
-57 8 0
57 -56 -8 0
58 10 0
-58 -10 0
-59 57 0
-59 58 0
59 -57 -58 0
-60 59 0
-60 12 0
60 -59 -12 0
61 -55 0
61 -60 0
-61 55 60 0
-62 23 0
-62 58 0
62 -23 -58 0
-63 62 0
-63 12 0
63 -62 -12 0
64 -61 0
64 -63 0
-64 61 63 0
-65 29 0
-65 58 0
65 -29 -58 0
-66 65 0
-66 12 0
66 -65 -12 0
67 -64 0
67 -66 0
-67 64 66 0
-68 35 0
-68 58 0
68 -35 -58 0
-69 68 0
-69 12 0
69 -68 -12 0
70 -67 0
70 -69 0
-70 67 69 0
-71 48 0
-71 58 0
71 -48 -58 0
-72 71 0
-72 12 0
72 -71 -12 0
73 -70 0
73 -72 0
-73 70 72 0
-74 5 0
-74 15 0
74 -5 -15 0
-75 74 0
-75 34 0
75 -74 -34 0
-76 75 0
-76 58 0
76 -75 -58 0
-77 76 0
-77 12 0
77 -76 -12 0
78 -73 0
78 -77 0
-78 73 77 0
-79 57 0
-79 10 0
79 -57 -10 0
80 12 0
-80 -12 0
-81 79 0
-81 80 0
81 -79 -80 0
82 -78 0
82 -81 0
-82 78 81 0
-83 18 0
-83 80 0
83 -18 -80 0
84 -82 0
84 -83 0
-84 82 83 0
-85 49 0
-85 80 0
85 -49 -80 0
86 -84 0
86 -85 0
-86 84 85 0
-87 53 0
-87 80 0
87 -53 -80 0
88 -86 0
88 -87 0
-88 86 87 0
-89 33 0
-89 8 0
89 -33 -8 0
-90 89 0
-90 58 0
90 -89 -58 0
-91 90 0
-91 80 0
91 -90 -80 0
92 -88 0
92 -91 0
-92 88 91 0
-93 39 0
-93 8 0
93 -39 -8 0
-94 93 0
-94 58 0
94 -93 -58 0
-95 94 0
-95 80 0
95 -94 -80 0
96 -92 0
96 -95 0
-96 92 95 0
-97 59 0
-97 80 0
97 -59 -80 0
98 -96 0
98 -97 0
-98 96 97 0
-99 9 0
-99 58 0
99 -9 -58 0
-100 99 0
-100 80 0
100 -99 -80 0
101 -98 0
101 -100 0
-101 98 100 0
-102 17 0
-102 58 0
102 -17 -58 0
-103 102 0
-103 80 0
103 -102 -80 0
104 -101 0
104 -103 0
-104 101 103 0
-105 65 0
-105 80 0
105 -65 -80 0
106 -104 0
106 -105 0
-106 104 105 0
-107 56 0
-107 34 0
107 -56 -34 0
-108 107 0
-108 58 0
108 -107 -58 0
-109 108 0
-109 80 0
109 -108 -80 0
110 -106 0
110 -109 0
-110 106 109 0
-111 44 0
-111 58 0
111 -44 -58 0
-112 111 0
-112 80 0
112 -111 -80 0
113 -110 0
113 -112 0
-113 110 112 0
-114 71 0
-114 80 0
114 -71 -80 0
115 -113 0
115 -114 0
-115 113 114 0
-116 52 0
-116 58 0
116 -52 -58 0
-117 116 0
-117 80 0
117 -116 -80 0
118 -115 0
118 -117 0
-118 115 117 0
-119 76 0
-119 80 0
119 -76 -80 0
120 -118 0
120 -119 0
-120 118 119 0
121 -8 10 0
121 8 -10 0
-121 -8 -10 0
-121 8 10 0
122 -121 12 0
122 121 -12 0
-122 -121 -12 0
-122 121 12 0
123 -120 -122 0
123 120 122 0
-123 -120 122 0
-123 120 -122 0
123 0
